<?xml version="1.0" encoding="UTF-8"?><osil xmlns="os.optimizationservices.org"   xmlns:xsi="http://www.w3.org/2001/XMLSchema-instance" xsi:schemaLocation="os.optimizationservices.org http://www.optimizationservices.org/schemas/2.0/OSiL.xsd" ><instanceHeader><name>q_30_0_100_5</name></instanceHeader><instanceData><variables numberOfVariables="30"><var name="x1" ub="1"/><var name="x2" ub="1"/><var name="x3" ub="1"/><var name="x4" ub="1"/><var name="x5" ub="1"/><var name="x6" ub="1"/><var name="x7" ub="1"/><var name="x8" ub="1"/><var name="x9" ub="1"/><var name="x10" ub="1"/><var name="x11" ub="1"/><var name="x12" ub="1"/><var name="x13" ub="1"/><var name="x14" ub="1"/><var name="x15" ub="1"/><var name="x16" ub="1"/><var name="x17" ub="1"/><var name="x18" ub="1"/><var name="x19" ub="1"/><var name="x20" ub="1"/><var name="x21" ub="1"/><var name="x22" ub="1"/><var name="x23" ub="1"/><var name="x24" ub="1"/><var name="x25" ub="1"/><var name="x26" ub="1"/><var name="x27" ub="1"/><var name="x28" ub="1"/><var name="x29" ub="1"/><var name="x30" ub="1"/></variables><objectives numberOfObjectives="1"><obj maxOrMin="min" name="defObj_x31" numberOfObjCoef="30"><coef idx="0">-.1486</coef><coef idx="1">.4237</coef><coef idx="2">.7526</coef><coef idx="3">.3702</coef><coef idx="4">-7.92e-2</coef><coef idx="5">.3093</coef><coef idx="6">-.3792</coef><coef idx="7">.5826</coef><coef idx="8">-2.7e-2</coef><coef idx="9">.2429</coef><coef idx="10">.4158</coef><coef idx="11">-.5107</coef><coef idx="12">-.3875</coef><coef idx="13">-.8247</coef><coef idx="14">-.1237</coef><coef idx="15">-.9108</coef><coef idx="16">.8865</coef><coef idx="17">-.2339</coef><coef idx="18">-.3238</coef><coef idx="19">.3171</coef><coef idx="20">-.7991</coef><coef idx="21">.8642</coef><coef idx="22">-.3354</coef><coef idx="23">-.9854</coef><coef idx="24">.6736</coef><coef idx="25">.9472</coef><coef idx="26">-.6774</coef><coef idx="27">.2819</coef><coef idx="28">-.8312</coef><coef idx="29">.9588</coef></obj></objectives><quadraticCoefficients  numberOfQuadraticTerms="465" ><qTerm  idx="-1"  idxOne="0"  idxTwo="0"  coef=".4211"/><qTerm  idx="-1"  idxOne="0"  idxTwo="1"  coef="-.2497"/><qTerm  idx="-1"  idxOne="0"  idxTwo="2"  coef=".462"/><qTerm  idx="-1"  idxOne="0"  idxTwo="3"  coef="-.7244"/><qTerm  idx="-1"  idxOne="0"  idxTwo="4"  coef=".5054"/><qTerm  idx="-1"  idxOne="0"  idxTwo="5"  coef="-.6719"/><qTerm  idx="-1"  idxOne="0"  idxTwo="6"  coef=".2062"/><qTerm  idx="-1"  idxOne="0"  idxTwo="7"  coef=".4854"/><qTerm  idx="-1"  idxOne="0"  idxTwo="8"  coef="-.8001"/><qTerm  idx="-1"  idxOne="0"  idxTwo="9"  coef=".4813"/><qTerm  idx="-1"  idxOne="0"  idxTwo="10"  coef="-.2475"/><qTerm  idx="-1"  idxOne="0"  idxTwo="11"  coef=".659"/><qTerm  idx="-1"  idxOne="0"  idxTwo="12"  coef="-.8335"/><qTerm  idx="-1"  idxOne="0"  idxTwo="13"  coef=".2203"/><qTerm  idx="-1"  idxOne="0"  idxTwo="14"  coef=".8903"/><qTerm  idx="-1"  idxOne="0"  idxTwo="15"  coef="-.7647"/><qTerm  idx="-1"  idxOne="0"  idxTwo="16"  coef=".5881"/><qTerm  idx="-1"  idxOne="0"  idxTwo="17"  coef="-.3864"/><qTerm  idx="-1"  idxOne="0"  idxTwo="18"  coef="-.5257"/><qTerm  idx="-1"  idxOne="0"  idxTwo="19"  coef="-.5672"/><qTerm  idx="-1"  idxOne="0"  idxTwo="20"  coef="-5.89e-2"/><qTerm  idx="-1"  idxOne="0"  idxTwo="21"  coef="-.1993"/><qTerm  idx="-1"  idxOne="0"  idxTwo="22"  coef="-.4537"/><qTerm  idx="-1"  idxOne="0"  idxTwo="23"  coef=".7725"/><qTerm  idx="-1"  idxOne="0"  idxTwo="24"  coef=".1709"/><qTerm  idx="-1"  idxOne="0"  idxTwo="25"  coef="-6.76e-2"/><qTerm  idx="-1"  idxOne="0"  idxTwo="26"  coef="-.6013"/><qTerm  idx="-1"  idxOne="0"  idxTwo="27"  coef=".8428"/><qTerm  idx="-1"  idxOne="0"  idxTwo="28"  coef="-.6915"/><qTerm  idx="-1"  idxOne="0"  idxTwo="29"  coef=".8838"/><qTerm  idx="-1"  idxOne="1"  idxTwo="1"  coef=".9223"/><qTerm  idx="-1"  idxOne="1"  idxTwo="2"  coef=".5193"/><qTerm  idx="-1"  idxOne="1"  idxTwo="3"  coef=".3182"/><qTerm  idx="-1"  idxOne="1"  idxTwo="4"  coef="-.221"/><qTerm  idx="-1"  idxOne="1"  idxTwo="5"  coef=".6815"/><qTerm  idx="-1"  idxOne="1"  idxTwo="6"  coef="-9.66e-2"/><qTerm  idx="-1"  idxOne="1"  idxTwo="7"  coef="-.1797"/><qTerm  idx="-1"  idxOne="1"  idxTwo="8"  coef="-.7994"/><qTerm  idx="-1"  idxOne="1"  idxTwo="9"  coef=".6868"/><qTerm  idx="-1"  idxOne="1"  idxTwo="10"  coef=".4518"/><qTerm  idx="-1"  idxOne="1"  idxTwo="11"  coef=".8514"/><qTerm  idx="-1"  idxOne="1"  idxTwo="12"  coef=".6759"/><qTerm  idx="-1"  idxOne="1"  idxTwo="13"  coef="-.6871"/><qTerm  idx="-1"  idxOne="1"  idxTwo="14"  coef=".6584"/><qTerm  idx="-1"  idxOne="1"  idxTwo="15"  coef="-.2458"/><qTerm  idx="-1"  idxOne="1"  idxTwo="16"  coef=".6472"/><qTerm  idx="-1"  idxOne="1"  idxTwo="17"  coef="-.3359"/><qTerm  idx="-1"  idxOne="1"  idxTwo="18"  coef="-.863"/><qTerm  idx="-1"  idxOne="1"  idxTwo="19"  coef=".1233"/><qTerm  idx="-1"  idxOne="1"  idxTwo="20"  coef=".6612"/><qTerm  idx="-1"  idxOne="1"  idxTwo="21"  coef=".2013"/><qTerm  idx="-1"  idxOne="1"  idxTwo="22"  coef=".6938"/><qTerm  idx="-1"  idxOne="1"  idxTwo="23"  coef="-.7642"/><qTerm  idx="-1"  idxOne="1"  idxTwo="24"  coef=".3951"/><qTerm  idx="-1"  idxOne="1"  idxTwo="25"  coef="-.3524"/><qTerm  idx="-1"  idxOne="1"  idxTwo="26"  coef="-.9741"/><qTerm  idx="-1"  idxOne="1"  idxTwo="27"  coef=".6833"/><qTerm  idx="-1"  idxOne="1"  idxTwo="28"  coef="-.4752"/><qTerm  idx="-1"  idxOne="1"  idxTwo="29"  coef="-.3353"/><qTerm  idx="-1"  idxOne="2"  idxTwo="2"  coef=".9698"/><qTerm  idx="-1"  idxOne="2"  idxTwo="3"  coef="-.9741"/><qTerm  idx="-1"  idxOne="2"  idxTwo="4"  coef="-.1607"/><qTerm  idx="-1"  idxOne="2"  idxTwo="5"  coef=".7583"/><qTerm  idx="-1"  idxOne="2"  idxTwo="6"  coef=".803"/><qTerm  idx="-1"  idxOne="2"  idxTwo="7"  coef="-.4884"/><qTerm  idx="-1"  idxOne="2"  idxTwo="8"  coef=".459"/><qTerm  idx="-1"  idxOne="2"  idxTwo="9"  coef=".7593"/><qTerm  idx="-1"  idxOne="2"  idxTwo="10"  coef=".3966"/><qTerm  idx="-1"  idxOne="2"  idxTwo="11"  coef=".2922"/><qTerm  idx="-1"  idxOne="2"  idxTwo="12"  coef="-.8999"/><qTerm  idx="-1"  idxOne="2"  idxTwo="13"  coef="-.3177"/><qTerm  idx="-1"  idxOne="2"  idxTwo="14"  coef=".2054"/><qTerm  idx="-1"  idxOne="2"  idxTwo="15"  coef="-7.02e-2"/><qTerm  idx="-1"  idxOne="2"  idxTwo="16"  coef="-.1661"/><qTerm  idx="-1"  idxOne="2"  idxTwo="17"  coef=".949"/><qTerm  idx="-1"  idxOne="2"  idxTwo="18"  coef=".8319"/><qTerm  idx="-1"  idxOne="2"  idxTwo="19"  coef="-.2402"/><qTerm  idx="-1"  idxOne="2"  idxTwo="20"  coef=".3515"/><qTerm  idx="-1"  idxOne="2"  idxTwo="21"  coef="-.6997"/><qTerm  idx="-1"  idxOne="2"  idxTwo="22"  coef=".7683"/><qTerm  idx="-1"  idxOne="2"  idxTwo="23"  coef="-.6599"/><qTerm  idx="-1"  idxOne="2"  idxTwo="24"  coef=".1491"/><qTerm  idx="-1"  idxOne="2"  idxTwo="25"  coef=".4292"/><qTerm  idx="-1"  idxOne="2"  idxTwo="26"  coef=".5753"/><qTerm  idx="-1"  idxOne="2"  idxTwo="27"  coef="-.2752"/><qTerm  idx="-1"  idxOne="2"  idxTwo="28"  coef="-.7367"/><qTerm  idx="-1"  idxOne="2"  idxTwo="29"  coef=".2302"/><qTerm  idx="-1"  idxOne="3"  idxTwo="3"  coef=".9897"/><qTerm  idx="-1"  idxOne="3"  idxTwo="4"  coef="-.5626"/><qTerm  idx="-1"  idxOne="3"  idxTwo="5"  coef="-.3133"/><qTerm  idx="-1"  idxOne="3"  idxTwo="6"  coef="-.113"/><qTerm  idx="-1"  idxOne="3"  idxTwo="7"  coef=".3194"/><qTerm  idx="-1"  idxOne="3"  idxTwo="8"  coef=".4135"/><qTerm  idx="-1"  idxOne="3"  idxTwo="9"  coef="-.4578"/><qTerm  idx="-1"  idxOne="3"  idxTwo="10"  coef="-.4937"/><qTerm  idx="-1"  idxOne="3"  idxTwo="11"  coef=".2359"/><qTerm  idx="-1"  idxOne="3"  idxTwo="12"  coef=".2791"/><qTerm  idx="-1"  idxOne="3"  idxTwo="13"  coef="-.8753"/><qTerm  idx="-1"  idxOne="3"  idxTwo="14"  coef="-.8146"/><qTerm  idx="-1"  idxOne="3"  idxTwo="15"  coef=".3627"/><qTerm  idx="-1"  idxOne="3"  idxTwo="16"  coef=".6978"/><qTerm  idx="-1"  idxOne="3"  idxTwo="17"  coef="-.1502"/><qTerm  idx="-1"  idxOne="3"  idxTwo="18"  coef=".8516"/><qTerm  idx="-1"  idxOne="3"  idxTwo="19"  coef="-.8482"/><qTerm  idx="-1"  idxOne="3"  idxTwo="20"  coef="-.7326"/><qTerm  idx="-1"  idxOne="3"  idxTwo="21"  coef=".3347"/><qTerm  idx="-1"  idxOne="3"  idxTwo="22"  coef="-.3677"/><qTerm  idx="-1"  idxOne="3"  idxTwo="23"  coef=".8576"/><qTerm  idx="-1"  idxOne="3"  idxTwo="24"  coef=".8423"/><qTerm  idx="-1"  idxOne="3"  idxTwo="25"  coef=".4222"/><qTerm  idx="-1"  idxOne="3"  idxTwo="26"  coef=".3568"/><qTerm  idx="-1"  idxOne="3"  idxTwo="27"  coef=".1597"/><qTerm  idx="-1"  idxOne="3"  idxTwo="28"  coef=".2008"/><qTerm  idx="-1"  idxOne="3"  idxTwo="29"  coef=".6678"/><qTerm  idx="-1"  idxOne="4"  idxTwo="4"  coef="-.7699"/><qTerm  idx="-1"  idxOne="4"  idxTwo="5"  coef=".6536"/><qTerm  idx="-1"  idxOne="4"  idxTwo="6"  coef="-.4263"/><qTerm  idx="-1"  idxOne="4"  idxTwo="7"  coef=".5469"/><qTerm  idx="-1"  idxOne="4"  idxTwo="8"  coef=".6991"/><qTerm  idx="-1"  idxOne="4"  idxTwo="9"  coef=".4764"/><qTerm  idx="-1"  idxOne="4"  idxTwo="10"  coef="-.6822"/><qTerm  idx="-1"  idxOne="4"  idxTwo="11"  coef="-.709"/><qTerm  idx="-1"  idxOne="4"  idxTwo="12"  coef="-.6123"/><qTerm  idx="-1"  idxOne="4"  idxTwo="13"  coef="-.6075"/><qTerm  idx="-1"  idxOne="4"  idxTwo="14"  coef="-.6624"/><qTerm  idx="-1"  idxOne="4"  idxTwo="15"  coef=".3302"/><qTerm  idx="-1"  idxOne="4"  idxTwo="16"  coef=".6541"/><qTerm  idx="-1"  idxOne="4"  idxTwo="17"  coef="-.6579"/><qTerm  idx="-1"  idxOne="4"  idxTwo="18"  coef="-.5587"/><qTerm  idx="-1"  idxOne="4"  idxTwo="19"  coef="-.1261"/><qTerm  idx="-1"  idxOne="4"  idxTwo="20"  coef=".8603"/><qTerm  idx="-1"  idxOne="4"  idxTwo="21"  coef=".1445"/><qTerm  idx="-1"  idxOne="4"  idxTwo="22"  coef="-.773"/><qTerm  idx="-1"  idxOne="4"  idxTwo="23"  coef=".1692"/><qTerm  idx="-1"  idxOne="4"  idxTwo="24"  coef=".8432"/><qTerm  idx="-1"  idxOne="4"  idxTwo="25"  coef=".8133"/><qTerm  idx="-1"  idxOne="4"  idxTwo="26"  coef=".1169"/><qTerm  idx="-1"  idxOne="4"  idxTwo="27"  coef="-.1312"/><qTerm  idx="-1"  idxOne="4"  idxTwo="28"  coef=".9717"/><qTerm  idx="-1"  idxOne="4"  idxTwo="29"  coef=".3126"/><qTerm  idx="-1"  idxOne="5"  idxTwo="5"  coef=".4154"/><qTerm  idx="-1"  idxOne="5"  idxTwo="6"  coef="-1.05e-2"/><qTerm  idx="-1"  idxOne="5"  idxTwo="7"  coef=".4772"/><qTerm  idx="-1"  idxOne="5"  idxTwo="8"  coef=".1875"/><qTerm  idx="-1"  idxOne="5"  idxTwo="9"  coef=".9525"/><qTerm  idx="-1"  idxOne="5"  idxTwo="10"  coef="-.3099"/><qTerm  idx="-1"  idxOne="5"  idxTwo="11"  coef="-.239"/><qTerm  idx="-1"  idxOne="5"  idxTwo="12"  coef=".5059"/><qTerm  idx="-1"  idxOne="5"  idxTwo="13"  coef=".466"/><qTerm  idx="-1"  idxOne="5"  idxTwo="14"  coef="-.334"/><qTerm  idx="-1"  idxOne="5"  idxTwo="15"  coef=".8077"/><qTerm  idx="-1"  idxOne="5"  idxTwo="16"  coef=".3148"/><qTerm  idx="-1"  idxOne="5"  idxTwo="17"  coef="-.4982"/><qTerm  idx="-1"  idxOne="5"  idxTwo="18"  coef=".2499"/><qTerm  idx="-1"  idxOne="5"  idxTwo="19"  coef="-.4484"/><qTerm  idx="-1"  idxOne="5"  idxTwo="20"  coef="2.e-4"/><qTerm  idx="-1"  idxOne="5"  idxTwo="21"  coef=".9242"/><qTerm  idx="-1"  idxOne="5"  idxTwo="22"  coef="-.3877"/><qTerm  idx="-1"  idxOne="5"  idxTwo="23"  coef="-.776"/><qTerm  idx="-1"  idxOne="5"  idxTwo="24"  coef="-.4047"/><qTerm  idx="-1"  idxOne="5"  idxTwo="25"  coef="-.8727"/><qTerm  idx="-1"  idxOne="5"  idxTwo="26"  coef="-1.4e-2"/><qTerm  idx="-1"  idxOne="5"  idxTwo="27"  coef="-.9627"/><qTerm  idx="-1"  idxOne="5"  idxTwo="28"  coef="-.15"/><qTerm  idx="-1"  idxOne="5"  idxTwo="29"  coef="-.7809"/><qTerm  idx="-1"  idxOne="6"  idxTwo="6"  coef="-.4473"/><qTerm  idx="-1"  idxOne="6"  idxTwo="7"  coef=".4151"/><qTerm  idx="-1"  idxOne="6"  idxTwo="8"  coef="7.28e-2"/><qTerm  idx="-1"  idxOne="6"  idxTwo="9"  coef="-.2027"/><qTerm  idx="-1"  idxOne="6"  idxTwo="10"  coef="-.4616"/><qTerm  idx="-1"  idxOne="6"  idxTwo="11"  coef=".1176"/><qTerm  idx="-1"  idxOne="6"  idxTwo="12"  coef=".108"/><qTerm  idx="-1"  idxOne="6"  idxTwo="13"  coef=".3765"/><qTerm  idx="-1"  idxOne="6"  idxTwo="14"  coef=".305"/><qTerm  idx="-1"  idxOne="6"  idxTwo="15"  coef="-.5298"/><qTerm  idx="-1"  idxOne="6"  idxTwo="16"  coef="-2.75e-2"/><qTerm  idx="-1"  idxOne="6"  idxTwo="17"  coef="-.8101"/><qTerm  idx="-1"  idxOne="6"  idxTwo="18"  coef="-.4449"/><qTerm  idx="-1"  idxOne="6"  idxTwo="19"  coef="-.8782"/><qTerm  idx="-1"  idxOne="6"  idxTwo="20"  coef="-.6795"/><qTerm  idx="-1"  idxOne="6"  idxTwo="21"  coef="-.8655"/><qTerm  idx="-1"  idxOne="6"  idxTwo="22"  coef="-.6457"/><qTerm  idx="-1"  idxOne="6"  idxTwo="23"  coef=".8807"/><qTerm  idx="-1"  idxOne="6"  idxTwo="24"  coef="-.7634"/><qTerm  idx="-1"  idxOne="6"  idxTwo="25"  coef=".217"/><qTerm  idx="-1"  idxOne="6"  idxTwo="26"  coef="-5.49e-2"/><qTerm  idx="-1"  idxOne="6"  idxTwo="27"  coef="-.9422"/><qTerm  idx="-1"  idxOne="6"  idxTwo="28"  coef="-.9389"/><qTerm  idx="-1"  idxOne="6"  idxTwo="29"  coef="-.2805"/><qTerm  idx="-1"  idxOne="7"  idxTwo="7"  coef="-.3906"/><qTerm  idx="-1"  idxOne="7"  idxTwo="8"  coef=".8925"/><qTerm  idx="-1"  idxOne="7"  idxTwo="9"  coef=".359"/><qTerm  idx="-1"  idxOne="7"  idxTwo="10"  coef="-.3714"/><qTerm  idx="-1"  idxOne="7"  idxTwo="11"  coef="-.5488"/><qTerm  idx="-1"  idxOne="7"  idxTwo="12"  coef=".1483"/><qTerm  idx="-1"  idxOne="7"  idxTwo="13"  coef=".225"/><qTerm  idx="-1"  idxOne="7"  idxTwo="14"  coef=".7272"/><qTerm  idx="-1"  idxOne="7"  idxTwo="15"  coef="-.8881"/><qTerm  idx="-1"  idxOne="7"  idxTwo="16"  coef="-2.11e-2"/><qTerm  idx="-1"  idxOne="7"  idxTwo="17"  coef="-.4108"/><qTerm  idx="-1"  idxOne="7"  idxTwo="18"  coef="-4.34e-2"/><qTerm  idx="-1"  idxOne="7"  idxTwo="19"  coef="-.7799"/><qTerm  idx="-1"  idxOne="7"  idxTwo="20"  coef="-.4614"/><qTerm  idx="-1"  idxOne="7"  idxTwo="21"  coef="-8.65e-2"/><qTerm  idx="-1"  idxOne="7"  idxTwo="22"  coef=".3207"/><qTerm  idx="-1"  idxOne="7"  idxTwo="23"  coef="4.31e-2"/><qTerm  idx="-1"  idxOne="7"  idxTwo="24"  coef=".8559"/><qTerm  idx="-1"  idxOne="7"  idxTwo="25"  coef="-.2257"/><qTerm  idx="-1"  idxOne="7"  idxTwo="26"  coef="-.1022"/><qTerm  idx="-1"  idxOne="7"  idxTwo="27"  coef="-.5768"/><qTerm  idx="-1"  idxOne="7"  idxTwo="28"  coef="-.8797"/><qTerm  idx="-1"  idxOne="7"  idxTwo="29"  coef=".3955"/><qTerm  idx="-1"  idxOne="8"  idxTwo="8"  coef=".7964"/><qTerm  idx="-1"  idxOne="8"  idxTwo="9"  coef=".2734"/><qTerm  idx="-1"  idxOne="8"  idxTwo="10"  coef="8.95e-2"/><qTerm  idx="-1"  idxOne="8"  idxTwo="11"  coef="-.4146"/><qTerm  idx="-1"  idxOne="8"  idxTwo="12"  coef=".9077"/><qTerm  idx="-1"  idxOne="8"  idxTwo="13"  coef="-.1895"/><qTerm  idx="-1"  idxOne="8"  idxTwo="14"  coef=".994"/><qTerm  idx="-1"  idxOne="8"  idxTwo="15"  coef="-.6899"/><qTerm  idx="-1"  idxOne="8"  idxTwo="16"  coef=".9394"/><qTerm  idx="-1"  idxOne="8"  idxTwo="17"  coef="-.2503"/><qTerm  idx="-1"  idxOne="8"  idxTwo="18"  coef="-.2187"/><qTerm  idx="-1"  idxOne="8"  idxTwo="19"  coef="-.1793"/><qTerm  idx="-1"  idxOne="8"  idxTwo="20"  coef=".9029"/><qTerm  idx="-1"  idxOne="8"  idxTwo="21"  coef=".1218"/><qTerm  idx="-1"  idxOne="8"  idxTwo="22"  coef=".2453"/><qTerm  idx="-1"  idxOne="8"  idxTwo="23"  coef=".7306"/><qTerm  idx="-1"  idxOne="8"  idxTwo="24"  coef="-.2001"/><qTerm  idx="-1"  idxOne="8"  idxTwo="25"  coef=".7936"/><qTerm  idx="-1"  idxOne="8"  idxTwo="26"  coef="-.7984"/><qTerm  idx="-1"  idxOne="8"  idxTwo="27"  coef="-.589"/><qTerm  idx="-1"  idxOne="8"  idxTwo="28"  coef=".6958"/><qTerm  idx="-1"  idxOne="8"  idxTwo="29"  coef="-4.55e-2"/><qTerm  idx="-1"  idxOne="9"  idxTwo="9"  coef="-.267"/><qTerm  idx="-1"  idxOne="9"  idxTwo="10"  coef=".8622"/><qTerm  idx="-1"  idxOne="9"  idxTwo="11"  coef="-.5897"/><qTerm  idx="-1"  idxOne="9"  idxTwo="12"  coef=".1178"/><qTerm  idx="-1"  idxOne="9"  idxTwo="13"  coef=".8772"/><qTerm  idx="-1"  idxOne="9"  idxTwo="14"  coef="-.7239"/><qTerm  idx="-1"  idxOne="9"  idxTwo="15"  coef=".8153"/><qTerm  idx="-1"  idxOne="9"  idxTwo="16"  coef=".9875"/><qTerm  idx="-1"  idxOne="9"  idxTwo="17"  coef="6.61e-2"/><qTerm  idx="-1"  idxOne="9"  idxTwo="18"  coef="7.47e-2"/><qTerm  idx="-1"  idxOne="9"  idxTwo="19"  coef="-.9466"/><qTerm  idx="-1"  idxOne="9"  idxTwo="20"  coef=".9993"/><qTerm  idx="-1"  idxOne="9"  idxTwo="21"  coef=".4921"/><qTerm  idx="-1"  idxOne="9"  idxTwo="22"  coef=".1736"/><qTerm  idx="-1"  idxOne="9"  idxTwo="23"  coef="-.5295"/><qTerm  idx="-1"  idxOne="9"  idxTwo="24"  coef="-.5874"/><qTerm  idx="-1"  idxOne="9"  idxTwo="25"  coef="-.9963"/><qTerm  idx="-1"  idxOne="9"  idxTwo="26"  coef="-.6875"/><qTerm  idx="-1"  idxOne="9"  idxTwo="27"  coef="-.6238"/><qTerm  idx="-1"  idxOne="9"  idxTwo="28"  coef="7.38e-2"/><qTerm  idx="-1"  idxOne="9"  idxTwo="29"  coef=".3122"/><qTerm  idx="-1"  idxOne="10"  idxTwo="10"  coef=".9116"/><qTerm  idx="-1"  idxOne="10"  idxTwo="11"  coef="-.7073"/><qTerm  idx="-1"  idxOne="10"  idxTwo="12"  coef=".3956"/><qTerm  idx="-1"  idxOne="10"  idxTwo="13"  coef=".6408"/><qTerm  idx="-1"  idxOne="10"  idxTwo="14"  coef=".906"/><qTerm  idx="-1"  idxOne="10"  idxTwo="15"  coef=".4384"/><qTerm  idx="-1"  idxOne="10"  idxTwo="16"  coef="-5.1e-3"/><qTerm  idx="-1"  idxOne="10"  idxTwo="17"  coef=".689"/><qTerm  idx="-1"  idxOne="10"  idxTwo="18"  coef=".8015"/><qTerm  idx="-1"  idxOne="10"  idxTwo="19"  coef="-.1671"/><qTerm  idx="-1"  idxOne="10"  idxTwo="20"  coef=".1501"/><qTerm  idx="-1"  idxOne="10"  idxTwo="21"  coef="-.6129"/><qTerm  idx="-1"  idxOne="10"  idxTwo="22"  coef="-.4673"/><qTerm  idx="-1"  idxOne="10"  idxTwo="23"  coef="-.2172"/><qTerm  idx="-1"  idxOne="10"  idxTwo="24"  coef=".5448"/><qTerm  idx="-1"  idxOne="10"  idxTwo="25"  coef=".5743"/><qTerm  idx="-1"  idxOne="10"  idxTwo="26"  coef="-.2467"/><qTerm  idx="-1"  idxOne="10"  idxTwo="27"  coef=".8448"/><qTerm  idx="-1"  idxOne="10"  idxTwo="28"  coef="-.784"/><qTerm  idx="-1"  idxOne="10"  idxTwo="29"  coef="-.2975"/><qTerm  idx="-1"  idxOne="11"  idxTwo="11"  coef="-.9803"/><qTerm  idx="-1"  idxOne="11"  idxTwo="12"  coef=".9786"/><qTerm  idx="-1"  idxOne="11"  idxTwo="13"  coef=".1967"/><qTerm  idx="-1"  idxOne="11"  idxTwo="14"  coef="-.9423"/><qTerm  idx="-1"  idxOne="11"  idxTwo="15"  coef="-.4481"/><qTerm  idx="-1"  idxOne="11"  idxTwo="16"  coef="-2.69e-2"/><qTerm  idx="-1"  idxOne="11"  idxTwo="17"  coef="-.1364"/><qTerm  idx="-1"  idxOne="11"  idxTwo="18"  coef="-.9192"/><qTerm  idx="-1"  idxOne="11"  idxTwo="19"  coef=".5189"/><qTerm  idx="-1"  idxOne="11"  idxTwo="20"  coef=".3404"/><qTerm  idx="-1"  idxOne="11"  idxTwo="21"  coef=".1516"/><qTerm  idx="-1"  idxOne="11"  idxTwo="22"  coef=".4074"/><qTerm  idx="-1"  idxOne="11"  idxTwo="23"  coef="-.3842"/><qTerm  idx="-1"  idxOne="11"  idxTwo="24"  coef=".4361"/><qTerm  idx="-1"  idxOne="11"  idxTwo="25"  coef="-.6147"/><qTerm  idx="-1"  idxOne="11"  idxTwo="26"  coef="-.8"/><qTerm  idx="-1"  idxOne="11"  idxTwo="27"  coef=".1892"/><qTerm  idx="-1"  idxOne="11"  idxTwo="28"  coef="-.8637"/><qTerm  idx="-1"  idxOne="11"  idxTwo="29"  coef=".3065"/><qTerm  idx="-1"  idxOne="12"  idxTwo="12"  coef=".2325"/><qTerm  idx="-1"  idxOne="12"  idxTwo="13"  coef=".2648"/><qTerm  idx="-1"  idxOne="12"  idxTwo="14"  coef=".3826"/><qTerm  idx="-1"  idxOne="12"  idxTwo="15"  coef=".6438"/><qTerm  idx="-1"  idxOne="12"  idxTwo="16"  coef="-.5217"/><qTerm  idx="-1"  idxOne="12"  idxTwo="17"  coef=".3787"/><qTerm  idx="-1"  idxOne="12"  idxTwo="18"  coef=".7293"/><qTerm  idx="-1"  idxOne="12"  idxTwo="19"  coef="-.1202"/><qTerm  idx="-1"  idxOne="12"  idxTwo="20"  coef=".5314"/><qTerm  idx="-1"  idxOne="12"  idxTwo="21"  coef=".2886"/><qTerm  idx="-1"  idxOne="12"  idxTwo="22"  coef="-.4004"/><qTerm  idx="-1"  idxOne="12"  idxTwo="23"  coef="-.3376"/><qTerm  idx="-1"  idxOne="12"  idxTwo="24"  coef="-.9079"/><qTerm  idx="-1"  idxOne="12"  idxTwo="25"  coef="-.4125"/><qTerm  idx="-1"  idxOne="12"  idxTwo="26"  coef=".8876"/><qTerm  idx="-1"  idxOne="12"  idxTwo="27"  coef=".3379"/><qTerm  idx="-1"  idxOne="12"  idxTwo="28"  coef="-.2619"/><qTerm  idx="-1"  idxOne="12"  idxTwo="29"  coef="-.7405"/><qTerm  idx="-1"  idxOne="13"  idxTwo="13"  coef=".1524"/><qTerm  idx="-1"  idxOne="13"  idxTwo="14"  coef=".8941"/><qTerm  idx="-1"  idxOne="13"  idxTwo="15"  coef=".2131"/><qTerm  idx="-1"  idxOne="13"  idxTwo="16"  coef="-.3442"/><qTerm  idx="-1"  idxOne="13"  idxTwo="17"  coef=".5042"/><qTerm  idx="-1"  idxOne="13"  idxTwo="18"  coef="-.931"/><qTerm  idx="-1"  idxOne="13"  idxTwo="19"  coef=".6521"/><qTerm  idx="-1"  idxOne="13"  idxTwo="20"  coef="-.3237"/><qTerm  idx="-1"  idxOne="13"  idxTwo="21"  coef=".27"/><qTerm  idx="-1"  idxOne="13"  idxTwo="22"  coef=".2362"/><qTerm  idx="-1"  idxOne="13"  idxTwo="23"  coef=".5923"/><qTerm  idx="-1"  idxOne="13"  idxTwo="24"  coef=".986"/><qTerm  idx="-1"  idxOne="13"  idxTwo="25"  coef="-6.44e-2"/><qTerm  idx="-1"  idxOne="13"  idxTwo="26"  coef=".6635"/><qTerm  idx="-1"  idxOne="13"  idxTwo="27"  coef="-.7397"/><qTerm  idx="-1"  idxOne="13"  idxTwo="28"  coef=".942"/><qTerm  idx="-1"  idxOne="13"  idxTwo="29"  coef="-.6956"/><qTerm  idx="-1"  idxOne="14"  idxTwo="14"  coef=".7189"/><qTerm  idx="-1"  idxOne="14"  idxTwo="15"  coef=".2027"/><qTerm  idx="-1"  idxOne="14"  idxTwo="16"  coef=".7485"/><qTerm  idx="-1"  idxOne="14"  idxTwo="17"  coef=".4619"/><qTerm  idx="-1"  idxOne="14"  idxTwo="18"  coef="4.3e-3"/><qTerm  idx="-1"  idxOne="14"  idxTwo="19"  coef=".8381"/><qTerm  idx="-1"  idxOne="14"  idxTwo="20"  coef="-.8394"/><qTerm  idx="-1"  idxOne="14"  idxTwo="21"  coef="-.7701"/><qTerm  idx="-1"  idxOne="14"  idxTwo="22"  coef="-.3017"/><qTerm  idx="-1"  idxOne="14"  idxTwo="23"  coef="-.2722"/><qTerm  idx="-1"  idxOne="14"  idxTwo="24"  coef=".4795"/><qTerm  idx="-1"  idxOne="14"  idxTwo="25"  coef=".3531"/><qTerm  idx="-1"  idxOne="14"  idxTwo="26"  coef=".2825"/><qTerm  idx="-1"  idxOne="14"  idxTwo="27"  coef=".3274"/><qTerm  idx="-1"  idxOne="14"  idxTwo="28"  coef="-.4461"/><qTerm  idx="-1"  idxOne="14"  idxTwo="29"  coef=".2588"/><qTerm  idx="-1"  idxOne="15"  idxTwo="15"  coef=".5324"/><qTerm  idx="-1"  idxOne="15"  idxTwo="16"  coef="-.6424"/><qTerm  idx="-1"  idxOne="15"  idxTwo="17"  coef="-.573"/><qTerm  idx="-1"  idxOne="15"  idxTwo="18"  coef=".6427"/><qTerm  idx="-1"  idxOne="15"  idxTwo="19"  coef=".1464"/><qTerm  idx="-1"  idxOne="15"  idxTwo="20"  coef=".7913"/><qTerm  idx="-1"  idxOne="15"  idxTwo="21"  coef="1.91e-2"/><qTerm  idx="-1"  idxOne="15"  idxTwo="22"  coef=".6857"/><qTerm  idx="-1"  idxOne="15"  idxTwo="23"  coef=".3674"/><qTerm  idx="-1"  idxOne="15"  idxTwo="24"  coef="-.7488"/><qTerm  idx="-1"  idxOne="15"  idxTwo="25"  coef="-.9634"/><qTerm  idx="-1"  idxOne="15"  idxTwo="26"  coef="-.2154"/><qTerm  idx="-1"  idxOne="15"  idxTwo="27"  coef=".9814"/><qTerm  idx="-1"  idxOne="15"  idxTwo="28"  coef=".3058"/><qTerm  idx="-1"  idxOne="15"  idxTwo="29"  coef="-.5648"/><qTerm  idx="-1"  idxOne="16"  idxTwo="16"  coef="4.3e-2"/><qTerm  idx="-1"  idxOne="16"  idxTwo="17"  coef=".3748"/><qTerm  idx="-1"  idxOne="16"  idxTwo="18"  coef="-.1711"/><qTerm  idx="-1"  idxOne="16"  idxTwo="19"  coef=".1803"/><qTerm  idx="-1"  idxOne="16"  idxTwo="20"  coef="-.3642"/><qTerm  idx="-1"  idxOne="16"  idxTwo="21"  coef=".4124"/><qTerm  idx="-1"  idxOne="16"  idxTwo="22"  coef=".2058"/><qTerm  idx="-1"  idxOne="16"  idxTwo="23"  coef=".2026"/><qTerm  idx="-1"  idxOne="16"  idxTwo="24"  coef=".3626"/><qTerm  idx="-1"  idxOne="16"  idxTwo="25"  coef=".5458"/><qTerm  idx="-1"  idxOne="16"  idxTwo="26"  coef="-2.22e-2"/><qTerm  idx="-1"  idxOne="16"  idxTwo="27"  coef="-.7975"/><qTerm  idx="-1"  idxOne="16"  idxTwo="28"  coef="-.5112"/><qTerm  idx="-1"  idxOne="16"  idxTwo="29"  coef="6.13e-2"/><qTerm  idx="-1"  idxOne="17"  idxTwo="17"  coef=".769"/><qTerm  idx="-1"  idxOne="17"  idxTwo="18"  coef=".701"/><qTerm  idx="-1"  idxOne="17"  idxTwo="19"  coef="-.7641"/><qTerm  idx="-1"  idxOne="17"  idxTwo="20"  coef=".3574"/><qTerm  idx="-1"  idxOne="17"  idxTwo="21"  coef="-4.37e-2"/><qTerm  idx="-1"  idxOne="17"  idxTwo="22"  coef=".7193"/><qTerm  idx="-1"  idxOne="17"  idxTwo="23"  coef=".4535"/><qTerm  idx="-1"  idxOne="17"  idxTwo="24"  coef=".5978"/><qTerm  idx="-1"  idxOne="17"  idxTwo="25"  coef="1.33e-2"/><qTerm  idx="-1"  idxOne="17"  idxTwo="26"  coef=".8512"/><qTerm  idx="-1"  idxOne="17"  idxTwo="27"  coef="-.6772"/><qTerm  idx="-1"  idxOne="17"  idxTwo="28"  coef=".5878"/><qTerm  idx="-1"  idxOne="17"  idxTwo="29"  coef="-.3585"/><qTerm  idx="-1"  idxOne="18"  idxTwo="18"  coef=".1872"/><qTerm  idx="-1"  idxOne="18"  idxTwo="19"  coef="5.89e-2"/><qTerm  idx="-1"  idxOne="18"  idxTwo="20"  coef="-.3317"/><qTerm  idx="-1"  idxOne="18"  idxTwo="21"  coef=".7479"/><qTerm  idx="-1"  idxOne="18"  idxTwo="22"  coef="-.9671"/><qTerm  idx="-1"  idxOne="18"  idxTwo="23"  coef=".9391"/><qTerm  idx="-1"  idxOne="18"  idxTwo="24"  coef=".9018"/><qTerm  idx="-1"  idxOne="18"  idxTwo="25"  coef=".32"/><qTerm  idx="-1"  idxOne="18"  idxTwo="26"  coef=".6027"/><qTerm  idx="-1"  idxOne="18"  idxTwo="27"  coef="-.6141"/><qTerm  idx="-1"  idxOne="18"  idxTwo="28"  coef=".531"/><qTerm  idx="-1"  idxOne="18"  idxTwo="29"  coef=".2639"/><qTerm  idx="-1"  idxOne="19"  idxTwo="19"  coef=".3663"/><qTerm  idx="-1"  idxOne="19"  idxTwo="20"  coef="-.233"/><qTerm  idx="-1"  idxOne="19"  idxTwo="21"  coef=".4189"/><qTerm  idx="-1"  idxOne="19"  idxTwo="22"  coef=".4041"/><qTerm  idx="-1"  idxOne="19"  idxTwo="23"  coef=".304"/><qTerm  idx="-1"  idxOne="19"  idxTwo="24"  coef=".3126"/><qTerm  idx="-1"  idxOne="19"  idxTwo="25"  coef="4.81e-2"/><qTerm  idx="-1"  idxOne="19"  idxTwo="26"  coef="-.5275"/><qTerm  idx="-1"  idxOne="19"  idxTwo="27"  coef="-.1305"/><qTerm  idx="-1"  idxOne="19"  idxTwo="28"  coef="-.6678"/><qTerm  idx="-1"  idxOne="19"  idxTwo="29"  coef="-.5155"/><qTerm  idx="-1"  idxOne="20"  idxTwo="20"  coef=".5784"/><qTerm  idx="-1"  idxOne="20"  idxTwo="21"  coef="1.6e-3"/><qTerm  idx="-1"  idxOne="20"  idxTwo="22"  coef="-.1111"/><qTerm  idx="-1"  idxOne="20"  idxTwo="23"  coef="-.3946"/><qTerm  idx="-1"  idxOne="20"  idxTwo="24"  coef="-.98"/><qTerm  idx="-1"  idxOne="20"  idxTwo="25"  coef="-.1806"/><qTerm  idx="-1"  idxOne="20"  idxTwo="26"  coef=".988"/><qTerm  idx="-1"  idxOne="20"  idxTwo="27"  coef="-.6747"/><qTerm  idx="-1"  idxOne="20"  idxTwo="28"  coef="-.3078"/><qTerm  idx="-1"  idxOne="20"  idxTwo="29"  coef=".2953"/><qTerm  idx="-1"  idxOne="21"  idxTwo="21"  coef="-.8559"/><qTerm  idx="-1"  idxOne="21"  idxTwo="22"  coef=".3771"/><qTerm  idx="-1"  idxOne="21"  idxTwo="23"  coef="-.6117"/><qTerm  idx="-1"  idxOne="21"  idxTwo="24"  coef=".1766"/><qTerm  idx="-1"  idxOne="21"  idxTwo="25"  coef=".472"/><qTerm  idx="-1"  idxOne="21"  idxTwo="26"  coef="-.1445"/><qTerm  idx="-1"  idxOne="21"  idxTwo="27"  coef="-.1965"/><qTerm  idx="-1"  idxOne="21"  idxTwo="28"  coef=".5678"/><qTerm  idx="-1"  idxOne="21"  idxTwo="29"  coef=".8256"/><qTerm  idx="-1"  idxOne="22"  idxTwo="22"  coef="-2.88e-2"/><qTerm  idx="-1"  idxOne="22"  idxTwo="23"  coef="-4.73e-2"/><qTerm  idx="-1"  idxOne="22"  idxTwo="24"  coef=".1173"/><qTerm  idx="-1"  idxOne="22"  idxTwo="25"  coef=".6063"/><qTerm  idx="-1"  idxOne="22"  idxTwo="26"  coef="-.8786"/><qTerm  idx="-1"  idxOne="22"  idxTwo="27"  coef=".8495"/><qTerm  idx="-1"  idxOne="22"  idxTwo="28"  coef=".1714"/><qTerm  idx="-1"  idxOne="22"  idxTwo="29"  coef=".4934"/><qTerm  idx="-1"  idxOne="23"  idxTwo="23"  coef="-.7093"/><qTerm  idx="-1"  idxOne="23"  idxTwo="24"  coef="-.5405"/><qTerm  idx="-1"  idxOne="23"  idxTwo="25"  coef=".7902"/><qTerm  idx="-1"  idxOne="23"  idxTwo="26"  coef="-.333"/><qTerm  idx="-1"  idxOne="23"  idxTwo="27"  coef=".9342"/><qTerm  idx="-1"  idxOne="23"  idxTwo="28"  coef=".6046"/><qTerm  idx="-1"  idxOne="23"  idxTwo="29"  coef="-.7882"/><qTerm  idx="-1"  idxOne="24"  idxTwo="24"  coef=".4245"/><qTerm  idx="-1"  idxOne="24"  idxTwo="25"  coef="-.3577"/><qTerm  idx="-1"  idxOne="24"  idxTwo="26"  coef="-.6746"/><qTerm  idx="-1"  idxOne="24"  idxTwo="27"  coef="-.1915"/><qTerm  idx="-1"  idxOne="24"  idxTwo="28"  coef="-4.01e-2"/><qTerm  idx="-1"  idxOne="24"  idxTwo="29"  coef="-.9931"/><qTerm  idx="-1"  idxOne="25"  idxTwo="25"  coef="2.94e-2"/><qTerm  idx="-1"  idxOne="25"  idxTwo="26"  coef=".5066"/><qTerm  idx="-1"  idxOne="25"  idxTwo="27"  coef=".9387"/><qTerm  idx="-1"  idxOne="25"  idxTwo="28"  coef=".4504"/><qTerm  idx="-1"  idxOne="25"  idxTwo="29"  coef="-.8174"/><qTerm  idx="-1"  idxOne="26"  idxTwo="26"  coef="-.1996"/><qTerm  idx="-1"  idxOne="26"  idxTwo="27"  coef=".3514"/><qTerm  idx="-1"  idxOne="26"  idxTwo="28"  coef=".316"/><qTerm  idx="-1"  idxOne="26"  idxTwo="29"  coef=".6336"/><qTerm  idx="-1"  idxOne="27"  idxTwo="27"  coef="-.5032"/><qTerm  idx="-1"  idxOne="27"  idxTwo="28"  coef="-.4267"/><qTerm  idx="-1"  idxOne="27"  idxTwo="29"  coef="-.9986"/><qTerm  idx="-1"  idxOne="28"  idxTwo="28"  coef="-.5176"/><qTerm  idx="-1"  idxOne="28"  idxTwo="29"  coef="-.9889"/><qTerm  idx="-1"  idxOne="29"  idxTwo="29"  coef="-.2244"/></quadraticCoefficients></instanceData></osil>
